
  32    1
  10

   0   0   4 2 3 4 7 
   6   1   4 10 8 6 5 
   4   2   3 10 8 6 
   1   1   2 8 5 
   2   1   4 15 14 11 9 
   2   3   3 14 11 9 
   4   1   4 23 18 13 10 
   1   4   2 15 9 
  10   1   4 23 18 13 12 
   3   2   3 19 14 12 
   7   2   3 24 16 13 
  10   2   2 24 16 
   4   1   2 19 17 
   6   3   1 16 
   8   2   1 16 
   6   3   1 17 
   6   3   3 22 21 20 
   4   1   3 22 21 20 
   5   1   2 27 21 
   2   1   5 31 30 28 27 26 
   5   3   3 28 26 25 
   4   2   2 27 25 
   2   4   2 26 25 
   1   1   3 31 30 26 
   8   3   2 31 30 
  10   1   1 29 
   5   1   1 29 
   3   1   1 29 
   8   1   1 32
   7   3   1 32
   3   5   1 32
   0   0   0 
